
n_res = 6;
rcap = [32, 34, 312, 295, 308, 297];
rtype = [1, 1, 2, 2, 2, 2];
n_tasks = 50;
modes =  [{1, 2, 3}, {4, 5, 6}, {7, 8, 9}, {10, 11, 12}, {13, 14, 15}, {16, 17, 18}, {19, 20, 21}, {22, 23, 24}, {25, 26, 27}, {28, 29, 30}, {31, 32, 33}, {34, 35, 36}, {37, 38, 39}, {40, 41, 42}, {43, 44, 45}, {46, 47, 48}, {49, 50, 51}, {52, 53, 54}, {55, 56, 57}, {58, 59, 60}, {61, 62, 63}, {64, 65, 66}, {67, 68, 69}, {70, 71, 72}, {73, 74, 75}, {76, 77, 78}, {79, 80, 81}, {82, 83, 84}, {85, 86, 87}, {88, 89, 90}, {91, 92, 93}, {94, 95, 96}, {97, 98, 99}, {100, 101, 102}, {103, 104, 105}, {106, 107, 108}, {109, 110, 111}, {112, 113, 114}, {115, 116, 117}, {118, 119, 120}, {121, 122, 123}, {124, 125, 126}, {127, 128, 129}, {130, 131, 132}, {133, 134, 135}, {136, 137, 138}, {139, 140, 141}, {142, 143, 144}, {145, 146, 147}, {148, 149, 150}];
succ =  [{16, 13, 12, 11, 8, 7, 6}, {14, 7, 6, 4}, {18, 5}, {19, 18, 13, 12, 10}, {17, 16, 8}, {19, 18, 17, 10}, {23, 19, 17, 10}, {23, 19, 10}, {24, 23, 21, 20, 19}, {21, 20, 15}, {24, 20, 17}, {31, 23, 17}, {20, 15}, {24, 22, 20}, {31, 26, 24, 22}, {28, 25, 21, 20}, {28, 27, 22, 21}, {34, 32, 31, 30, 28, 26}, {32, 26, 22}, {34, 31, 26}, {34, 32, 30, 29}, {30, 25}, {32, 26}, {33, 32, 28}, {36, 34, 33, 29}, {29, 27}, {42, 39, 37, 36, 35, 33}, {36, 29}, {42, 41, 40, 39, 37, 35}, {37, 36, 35, 33}, {42, 39, 37, 33}, {50, 40, 37, 35}, {50, 41, 40, 38}, {40, 37, 35}, {48, 38}, {48, 38}, {38}, {49, 46, 45, 44, 43}, {50, 49, 48, 45, 44}, {48, 46, 45, 44}, {47, 45, 44}, {48, 46}, {47}, {}, {}, {}, {}, {}, {}, {}];
n_opt = 150;
dur = [2, 4, 8, 5, 6, 7, 1, 2, 8, 3, 6, 9, 4, 5, 10, 1, 3, 10, 5, 7, 8, 1, 7, 8, 2, 9, 10, 1, 2, 7, 2, 6, 10, 5, 9, 10, 2, 3, 5, 2, 5, 9, 1, 4, 5, 1, 3, 5, 1, 2, 4, 5, 6, 7, 3, 8, 10, 3, 4, 5, 7, 9, 10, 4, 5, 8, 2, 7, 10, 8, 9, 10, 6, 7, 8, 5, 7, 8, 1, 8, 10, 7, 9, 10, 4, 6, 8, 1, 5, 9, 5, 8, 10, 1, 2, 3, 2, 4, 6, 7, 8, 9, 3, 6, 9, 1, 9, 10, 1, 4, 5, 2, 5, 7, 2, 9, 10, 3, 4, 10, 7, 8, 9, 5, 6, 8, 1, 5, 7, 5, 7, 10, 2, 6, 10, 3, 4, 10, 1, 2, 7, 1, 2, 7, 1, 2, 3, 7, 8, 9];
rreq = [|8, 7, 5, 2, 2, 2, 2, 1, 1, 7, 6, 6, 8, 7, 7, 5, 3, 2, 8, 7, 7, 10, 5, 1, 3, 1, 1, 6, 5, 5, 4, 3, 3, 10, 5, 2, 9, 8, 7, 6, 6, 6, 4, 2, 2, 5, 4, 3, 7, 6, 6, 7, 3, 3, 5, 4, 4, 8, 6, 6, 4, 4, 4, 6, 6, 5, 5, 3, 3, 9, 8, 7, 4, 3, 1, 3, 2, 2, 7, 6, 4, 1, 1, 1, 9, 9, 9, 8, 4, 3, 8, 6, 6, 8, 7, 4, 6, 5, 4, 7, 6, 4, 9, 9, 7, 9, 9, 9, 4, 4, 1, 2, 2, 2, 6, 6, 6, 4, 3, 1, 7, 4, 2, 9, 9, 9, 7, 6, 6, 5, 4, 3, 4, 3, 3, 7, 3, 3, 10, 7, 3, 6, 5, 5, 7, 5, 5, 7, 6, 5
 |2, 2, 2, 7, 4, 2, 3, 3, 3, 5, 5, 4, 3, 2, 1, 10, 8, 7, 5, 4, 4, 8, 8, 6, 9, 6, 4, 6, 4, 1, 6, 4, 3, 5, 4, 4, 10, 8, 8, 8, 6, 5, 10, 10, 10, 8, 6, 4, 4, 2, 1, 6, 6, 4, 4, 4, 4, 2, 2, 2, 3, 3, 3, 2, 2, 2, 6, 6, 6, 9, 6, 2, 8, 7, 7, 8, 6, 4, 7, 5, 5, 10, 6, 4, 7, 7, 7, 4, 4, 2, 5, 4, 4, 9, 7, 6, 6, 6, 5, 8, 6, 4, 7, 7, 7, 3, 2, 1, 8, 7, 7, 10, 9, 8, 7, 4, 4, 5, 4, 2, 10, 9, 8, 7, 5, 4, 3, 2, 2, 5, 5, 5, 7, 7, 5, 9, 6, 5, 9, 8, 6, 1, 1, 1, 7, 5, 5, 6, 5, 5
 |1, 1, 1, 5, 4, 4, 6, 5, 4, 10, 8, 7, 5, 4, 4, 3, 3, 3, 9, 7, 5, 8, 7, 7, 10, 10, 10, 9, 8, 7, 6, 5, 5, 7, 6, 6, 9, 9, 8, 7, 7, 6, 8, 7, 7, 5, 4, 3, 7, 6, 6, 1, 1, 1, 10, 7, 5, 8, 8, 8, 6, 6, 6, 7, 4, 3, 8, 7, 4, 7, 3, 2, 10, 9, 7, 7, 6, 5, 9, 8, 5, 6, 6, 6, 4, 3, 1, 10, 7, 5, 7, 4, 4, 7, 6, 5, 5, 4, 4, 6, 4, 2, 8, 7, 6, 1, 1, 1, 9, 6, 5, 8, 7, 7, 8, 7, 6, 1, 1, 1, 4, 4, 2, 2, 2, 1, 9, 8, 7, 10, 10, 10, 5, 4, 4, 9, 7, 5, 8, 8, 4, 10, 7, 3, 8, 5, 1, 7, 6, 2
 |9, 5, 5, 5, 3, 1, 4, 3, 2, 5, 2, 2, 7, 4, 2, 8, 6, 3, 5, 4, 4, 7, 6, 5, 6, 6, 5, 8, 5, 4, 8, 6, 5, 9, 6, 6, 8, 7, 7, 4, 3, 2, 10, 7, 6, 5, 4, 3, 6, 5, 5, 5, 3, 3, 9, 7, 5, 5, 4, 4, 8, 8, 5, 3, 3, 2, 4, 3, 2, 8, 7, 7, 6, 6, 6, 6, 5, 4, 6, 5, 5, 9, 8, 8, 5, 4, 3, 7, 4, 4, 8, 5, 4, 7, 4, 2, 5, 3, 3, 7, 7, 5, 7, 6, 6, 6, 5, 5, 2, 2, 2, 7, 6, 4, 9, 9, 9, 8, 7, 7, 6, 6, 5, 7, 6, 5, 8, 6, 6, 10, 6, 2, 2, 2, 2, 3, 3, 3, 8, 5, 2, 5, 4, 4, 6, 3, 2, 8, 8, 8
 |7, 7, 5, 6, 6, 4, 6, 5, 5, 6, 4, 3, 5, 5, 5, 6, 5, 4, 6, 6, 5, 5, 2, 2, 8, 6, 5, 8, 5, 3, 8, 8, 5, 10, 9, 8, 9, 7, 6, 3, 3, 2, 7, 4, 3, 1, 1, 1, 8, 7, 7, 9, 7, 1, 4, 4, 4, 6, 6, 6, 10, 7, 6, 10, 7, 5, 4, 3, 3, 10, 7, 4, 7, 6, 6, 9, 8, 8, 4, 3, 2, 2, 2, 1, 10, 9, 8, 9, 6, 5, 8, 8, 7, 6, 4, 2, 10, 7, 7, 7, 6, 5, 7, 6, 4, 9, 6, 4, 8, 5, 2, 9, 9, 9, 4, 3, 1, 8, 8, 6, 3, 1, 1, 6, 6, 3, 8, 8, 8, 3, 3, 3, 7, 7, 7, 9, 7, 4, 4, 3, 2, 8, 5, 4, 5, 5, 5, 6, 5, 2
 |6, 5, 4, 4, 4, 2, 2, 2, 1, 5, 5, 5, 7, 6, 2, 9, 8, 8, 9, 7, 4, 7, 6, 5, 7, 7, 5, 7, 7, 6, 7, 5, 5, 10, 5, 4, 9, 8, 8, 7, 7, 7, 7, 5, 3, 4, 2, 1, 3, 3, 3, 9, 8, 8, 6, 6, 6, 1, 2, 1, 7, 5, 5, 8, 8, 8, 8, 7, 7, 4, 4, 4, 8, 6, 4, 10, 8, 6, 7, 5, 4, 3, 3, 3, 5, 4, 1, 8, 4, 1, 7, 4, 4, 10, 10, 10, 8, 6, 6, 9, 8, 8, 5, 5, 5, 8, 6, 5, 6, 4, 3, 6, 5, 5, 9, 8, 8, 10, 9, 7, 5, 2, 1, 7, 6, 6, 10, 7, 6, 4, 4, 2, 2, 2, 1, 5, 5, 5, 6, 5, 4, 4, 2, 2, 4, 2, 2, 3, 3, 1|];